54518
24 35 296
35 5 323
5 13 723
13 41 686
41 32 362
32 44 676
44 19 1282
19 48 897
48 17 415
17 23 619
23 21 176
21 29 516
29 22 544
22 10 117
10 16 734
16 39 451
39 46 214
46 36 402
36 15 679
15 52 631
52 45 722
45 11 436
11 25 545
25 31 299
31 27 4460
27 1 4123
1 33 7621
33 42 4807
42 2 1722
2 14 433
14 12 816
12 18 768
18 4 606
4 30 380
30 47 944
47 9 1162
9 34 835
34 53 396
53 54 624
54 26 967
26 49 560
49 55 711
55 28 487
28 6 404
6 3 385
3 43 1096
43 40 1279
40 51 1042
51 37 590
37 7 517
7 20 846
20 50 763
50 38 1180
38 8 368
8 24 881
